Name : 5i60-21
DIMENSION : 60
NUMBER_OF_CLUSTERS: 5
NODE_COORD_SECTION
1 293  998
2 366  983
3 198  155
4 72  1181
5 302  956
6 706  382
7 757  323
8 880  458
9 307  715
10 269  947
11 474  577
12 947  206
13 1213  920
14 565  827
15 983  307
16 159  852
17 917  746
18 716  799
19 113  158
20 356  338
21 733  81
22 470  862
23 330  827
24 7  82
25 365  823
26 671  189
27 963  322
28 -39  1037
29 291  684
30 348  932
31 885  352
32 53  999
33 233  153
34 696  295
35 210  313
36 575  730
37 -58  48
38 890  275
39 211  24
40 102  771
41 357  225
42 513  1052
43 1019  727
44 823  592
45 769  906
46 363  1042
47 103  116
48 735  466
49 616  627
50 120  31
51 465  858
52 410  927
53 411  943
54 290  822
55 233  1168
56 283  1048
57 335  871
58 669  977
59 410  922
60 859  790
CLUSTER_SECTION:
1 13 -1
2 3 24 35 41 -1
3 1 53 55 -1
4 6 26 27 -1
5 2 36 57 -1
